14
0 78 26 7 330 319 393 327 2 64 71 616 72 563
78 0 256 519 42 280 127 106 70 100 145 13 418 194
26 256 0 447 0 40 676 74 195 6 64 75 114 465
7 519 447 0 287 488 24 318 674 346 358 739 13 0
330 42 0 287 0 203 11 23 11 446 203 523 173 188
319 280 40 488 203 0 107 113 124 821 46 78 64 442
393 127 676 24 11 107 0 60 69 22 42 86 16 266
327 106 74 318 23 113 60 0 367 2 724 165 227 2
2 70 195 674 11 124 69 367 0 73 156 268 252 645
64 100 6 346 446 821 22 2 73 0 683 134 554 744
71 145 64 358 203 46 42 724 156 683 0 267 622 708
616 13 75 739 523 78 86 165 268 134 267 0 176 368
72 418 114 13 173 64 16 227 252 554 622 176 0 151
563 194 465 0 188 442 266 2 645 744 708 368 151 0